NAME : portgen-24-63
COMMENT : portgen N=24, seed=63
TYPE : TSP
DIMENSION : 24
EDGE_WEIGHT_TYPE : EUC_2D
NODE_COORD_SECTION
1 955259 392374
2 506760 536293
3 913495 402254
4 905911 806412
5 659946 542907
6 593318 172728
7 909351 33004
8 788479 115556
9 980399 878003
10 407807 210128
11 408645 133275
12 849690 115728
13 546334 322244
14 196086 842803
15 690136 81590
16 855478 921461
17 168328 163049
18 208760 823973
19 171795 656895
20 145076 240984
21 841746 316034
22 428813 158620
23 907884 447357
24 750868 645504
